(set-logic QF_S)
(set-option :parse-transducers true)
(set-option :produce-models true)
(define-fun-rec toLower ((x String) (y String)) Bool
   (or (and (= x "") (= y ""))
       (and (not (= x "")) (not (= y ""))
           (= (char.code (str.head y))
               (ite (and (<= 65 (char.code (str.head x)))
                       (<= (char.code (str.head x)) 90))
                   (+ (char.code (str.head x)) 32)
                   (char.code (str.head x))))
           (toLower (str.tail x) (str.tail y))))
)
(declare-fun r1[$i2] () String)
(declare-fun $r3 () String)
(declare-fun L13  () String)
(declare-fun L35  () String)
(declare-fun L9  () String)
(declare-fun L25  () String)
(declare-fun L7  () String)
(declare-fun L5  () String)
(declare-fun L3  () String)
(declare-fun L82  () String)
(declare-fun L1  () String)
(declare-fun L0  () String)
(assert (toLower $r3  L0 ))
(assert (toLower "description"  L1 ))
(assert (toLower r1[$i2]  L82 ))
(assert (toLower "field"  L3 ))
(assert (toLower "database"  L5 ))
(assert (toLower "length"  L7 ))
(assert (toLower "type"  L25 ))
(assert (toLower "table"  L9 ))
(assert (toLower "option"  L35 ))
(assert (toLower "name"  L13 ))

(assert (not (= L0 L1 )))
(assert (= L0 L3 ))
(assert (= L0 L5 ))
(assert (not (= L0 L7 )))
(assert (= L0 L9 ))
(assert (= L0 L7 ))
(assert (not (= L0 L13 )))
(assert (not (= L0 L13 )))
(assert (not (= L0 L1 )))
(assert (not (= L0 L1 )))
(assert (= L0 L3 ))
(assert (not (= L0 L9 )))
(assert (= L0 L25 ))
(assert (= L0 L1 ))
(assert (not (= L0 L13 )))
(assert (not (= L0 L13 )))
(assert (not (= L0 L1 )))
(assert (= L0 L35 ))
(assert (= L0 L1 ))
(assert (= L0 L13 ))
(assert (not (= L0 L7 )))
(assert (not (= L0 L13 )))
(assert (not (= L0 L1 )))
(assert (= L0 L35 ))
(assert (not (= L0 L13 )))
(assert (not (= L0 L13 )))
(assert (not (= L0 L1 )))
(assert (= L0 L13 ))
(assert (not (= L0 L7 )))
(assert (not (= L0 L13 )))
(assert (not (= L0 L13 )))
(assert (= L0 L25 ))
(assert (not (= L0 L1 )))
(assert (= L0 L35 ))
(assert (not (= L0 L1 )))
(assert (not (= L0 L13 )))
(assert (not (= L0 L25 )))
(assert (= L0 L1 ))
(assert (not (= L0 L13 )))
(assert (not (= L0 L13 )))
(assert (= L0 L1 ))
(assert (= L82 "html" ))
(assert (not (= L0 L25 )))
(assert (not (= L0 L13 )))
(assert (not (= L82 "sql" )))
(assert (not (= L0 L13 )))
(assert (not (= L0 L1 )))
(assert (not (= L0 L13 )))
(assert (not (= L0 L3 )))
(assert (= L0 L13 ))
(assert (not (= L0 L1 )))
(assert (not (= L0 L1 )))
(assert (not (= L0 L25 )))
(assert (not (= L0 L25 )))
(check-sat)
(get-model)
(exit)
